Version identifier: 22.1.0.0 | 2022-03-09 | 1a383f8ce
CPXPARAM_Threads                                 1
CPXPARAM_MIP_Strategy_VariableSelect             3
CPXPARAM_TimeLimit                               600
Retaining values of one MIP start for possible repair.
Tried aggregator 2 times.
MIP Presolve eliminated 34 rows and 1 columns.
MIP Presolve added 28 rows and 7 columns.
MIP Presolve modified 105 coefficients.
Aggregator did 7 substitutions.
Reduced MIP has 613 rows, 2600 columns, and 32648 nonzeros.
Reduced MIP has 2600 binaries, 0 generals, 0 SOSs, and 0 indicators.
Presolve time = 0.07 sec. (68.18 ticks)
Found incumbent of value 1.000000 after 0.09 sec. (74.14 ticks)
Probing time = 0.01 sec. (9.55 ticks)
Tried aggregator 1 time.
Detecting symmetries...
MIP Presolve modified 11 coefficients.
Reduced MIP has 613 rows, 2600 columns, and 33051 nonzeros.
Reduced MIP has 2600 binaries, 0 generals, 0 SOSs, and 0 indicators.
Presolve time = 0.04 sec. (34.81 ticks)
Probing time = 0.01 sec. (9.62 ticks)
Clique table members: 399.
MIP emphasis: balance optimality and feasibility.
MIP search method: dynamic search.
Parallel mode: none, using 1 thread.
Root relaxation solution time = 0.33 sec. (355.76 ticks)

        Nodes                                         Cuts/
   Node  Left     Objective  IInf  Best Integer    Best Bound    ItCnt     Gap

*     0+    0                            1.0000     5050.0000              --- 
      0     0      100.0000   449        1.0000      100.0000     2452     --- 
      0     0      100.0000   332        1.0000       Cuts: 7     3548     --- 
      0     0      100.0000   346        1.0000       Cuts: 9     4328     --- 
      0     0      100.0000   335        1.0000      Cuts: 10     6671     --- 
*     0+    0                           38.0000      100.0000           163.16%
*     0+    0                           77.0000      100.0000            29.87%
*     0+    0                           85.0000      100.0000            17.65%
      0     0        cutoff             85.0000      100.0000     6671   17.65%
      0     0      100.0000   418       85.0000       Cuts: 4     7330   17.65%
*     0+    0                           91.0000      100.0000             9.89%
Repair heuristic found nothing.
Detecting symmetries...
      0     2      100.0000   280       91.0000      100.0000     7330    9.89%
Elapsed time = 17.61 sec. (18739.16 ticks, tree = 0.01 MB, solutions = 5)
      1     3      100.0000   351       91.0000      100.0000     9996    9.89%
      2     4      100.0000   355       91.0000      100.0000    12576    9.89%
      3     4       99.0000   429       91.0000      100.0000    16336    9.89%
      4     4      100.0000   325       91.0000      100.0000    19008    9.89%
      6     6      100.0000   329       91.0000      100.0000    20723    9.89%
      8     8      100.0000   330       91.0000      100.0000    21009    9.89%
     10     8       98.8667   419       91.0000      100.0000    23125    9.89%
     12    10      100.0000   344       91.0000      100.0000    23612    9.89%
     14    11       99.6940   441       91.0000      100.0000    25796    9.89%
     21    17      100.0000   318       91.0000      100.0000    28716    9.89%
Elapsed time = 22.16 sec. (23917.37 ticks, tree = 0.02 MB, solutions = 5)
     26    20       99.7581   431       91.0000      100.0000    35225    9.89%
     30    24      100.0000   292       91.0000      100.0000    42556    9.89%
     36    29       98.7500   317       91.0000      100.0000    47440    9.89%
     44    32       98.0000   271       91.0000      100.0000    55062    9.89%
     51    36       97.0000   263       91.0000      100.0000    70839    9.89%
     58    41       98.0000   325       91.0000      100.0000    77825    9.89%
     64    45       97.0000   230       91.0000      100.0000    81937    9.89%
     70    49       98.0000   231       91.0000      100.0000    87218    9.89%
     79    55       98.0000   235       91.0000      100.0000    90149    9.89%
     83    57       97.1000   272       91.0000      100.0000    91965    9.89%
Elapsed time = 32.11 sec. (34694.68 ticks, tree = 0.13 MB, solutions = 5)
     92    64       96.0000   139       91.0000      100.0000    96048    9.89%
    106    66       96.0000   140       91.0000      100.0000   100244    9.89%
    118    69       95.0000    50       91.0000      100.0000   104466    9.89%
    122    68       99.0000   234       91.0000      100.0000   109904    9.89%
    126    72       99.0000   134       91.0000      100.0000   116276    9.89%
    131    75       98.0000   285       91.0000      100.0000   122700    9.89%
    136    79       98.0000   258       91.0000      100.0000   128125    9.89%
    141    83       97.6667   290       91.0000      100.0000   131651    9.89%
    147    87       98.0000   230       91.0000      100.0000   137544    9.89%
    151    91       98.0000   218       91.0000      100.0000   139802    9.89%
Elapsed time = 42.08 sec. (45207.90 ticks, tree = 0.29 MB, solutions = 5)
    157    94       98.0000   236       91.0000      100.0000   146097    9.89%
    162    98       98.0000   254       91.0000      100.0000   147598    9.89%
    170   103       98.0000   235       91.0000      100.0000   150976    9.89%
    179   110       98.0000   188       91.0000      100.0000   154161    9.89%
    186   115       98.0000   184       91.0000      100.0000   158040    9.89%
    194   120       96.0000   128       91.0000      100.0000   164574    9.89%
    204   128       97.0000   124       91.0000      100.0000   171397    9.89%
    214   138       97.0000    86       91.0000      100.0000   176671    9.89%
    224   145       96.0000   146       91.0000      100.0000   183842    9.89%
    234   153       97.0000   103       91.0000      100.0000   190378    9.89%
Elapsed time = 52.21 sec. (55279.95 ticks, tree = 0.67 MB, solutions = 5)
    250   157       96.0000    66       91.0000      100.0000   198013    9.89%
    264   161      100.0000   292       91.0000      100.0000   203473    9.89%
    269   165       99.0084   391       91.0000      100.0000   209282    9.89%
    272   168       99.0000   228       91.0000      100.0000   214408    9.89%
    277   172       98.0000   296       91.0000      100.0000   218877    9.89%
    284   177       96.0000   189       91.0000      100.0000   223612    9.89%
    294   187       96.0000    65       91.0000      100.0000   227830    9.89%
    310   191       95.0000    80       91.0000      100.0000   234575    9.89%
    320   193       98.0000   300       91.0000      100.0000   239052    9.89%
    327   200       98.0000   314       91.0000      100.0000   240419    9.89%
Elapsed time = 62.75 sec. (65814.08 ticks, tree = 0.96 MB, solutions = 5)
    334   206       97.0000   365       91.0000      100.0000   243423    9.89%
    343   215       97.0000   214       91.0000      100.0000   245063    9.89%
    352   224       97.0000   205       91.0000      100.0000   246713    9.89%
    360   232       97.0000   181       91.0000      100.0000   249251    9.89%
    370   241       95.0000    99       91.0000      100.0000   253791    9.89%
    384   248       95.0000    38       91.0000      100.0000   258108    9.89%
*   387   234      integral     0       95.0000      100.0000   259513    5.26%
    392   236       98.0000   323       95.0000      100.0000   263288    5.26%
    398   241       97.0000   204       95.0000      100.0000   267843    5.26%
    405   248       97.0000   153       95.0000      100.0000   271392    5.26%
    413   255       96.0000   141       95.0000      100.0000   276499    5.26%
Elapsed time = 73.12 sec. (76074.60 ticks, tree = 1.30 MB, solutions = 6)
    424   266       96.0000   123       95.0000      100.0000   280509    5.26%
    436   273      100.0000   242       95.0000      100.0000   287618    5.26%
    440   275       99.0000   253       95.0000      100.0000   294259    5.26%
    446   279       98.4806   367       95.0000      100.0000   301530    5.26%
    451   283       99.0000   213       95.0000      100.0000   306775    5.26%
    455   286       99.0000   199       95.0000      100.0000   313918    5.26%
    462   291       98.0000   161       95.0000      100.0000   318695    5.26%
    471   298       98.0000   135       95.0000      100.0000   323028    5.26%
    480   304       97.0000   274       95.0000      100.0000   328021    5.26%
    488   310       98.0000   104       95.0000      100.0000   333131    5.26%
Elapsed time = 84.18 sec. (87019.77 ticks, tree = 1.65 MB, solutions = 6)
    499   315       96.0000    86       95.0000      100.0000   340019    5.26%
    509   317       96.0000    66       95.0000      100.0000   348698    5.26%
    519   319    infeasible             95.0000      100.0000   358259    5.26%
    530   322       96.0000    91       95.0000      100.0000   365691    5.26%
    540   323       99.0000   223       95.0000      100.0000   374446    5.26%
    544   326       98.0625   370       95.0000      100.0000   381205    5.26%
    551   333       98.0000   284       95.0000      100.0000   384253    5.26%
    560   338       96.0000   200       95.0000      100.0000   389766    5.26%
    574   338    infeasible             95.0000      100.0000   398251    5.26%
    585   339    infeasible             95.0000      100.0000   408869    5.26%
Elapsed time = 95.35 sec. (97642.39 ticks, tree = 1.83 MB, solutions = 6)
    598   340       96.0000   122       95.0000      100.0000   418145    5.26%
    609   339    infeasible             95.0000      100.0000   428239    5.26%
    622   338       99.0938   378       95.0000      100.0000   440595    5.26%
    629   343       97.0000   265       95.0000      100.0000   445605    5.26%
    634   345    infeasible             95.0000      100.0000   452937    5.26%
    638   347       96.0000   158       95.0000      100.0000   459581    5.26%
    645   350       96.0000   116       95.0000      100.0000   466426    5.26%
    654   357       96.0000    60       95.0000      100.0000   471853    5.26%
    664   359       99.0000   214       95.0000      100.0000   479276    5.26%
    670   364       98.0000   242       95.0000      100.0000   483533    5.26%
Elapsed time = 106.28 sec. (108185.84 ticks, tree = 1.97 MB, solutions = 6)
    677   369       98.0000   204       95.0000      100.0000   486740    5.26%
    684   372       96.0000    98       95.0000      100.0000   492684    5.26%
    694   373       98.0000   235       95.0000      100.0000   498222    5.26%
    702   381       98.0000   211       95.0000      100.0000   499584    5.26%
    710   389       98.0000   240       95.0000      100.0000   501535    5.26%
    718   397       98.0000   208       95.0000      100.0000   502923    5.26%
    725   404       98.0000   238       95.0000      100.0000   506050    5.26%
    732   409       96.0000   154       95.0000      100.0000   513006    5.26%
    741   410       96.0000   149       95.0000      100.0000   521124    5.26%
    790   415    infeasible             95.0000      100.0000   557471    5.26%
Elapsed time = 120.14 sec. (121554.72 ticks, tree = 2.08 MB, solutions = 6)
    809   429       98.0000   275       95.0000      100.0000   573787    5.26%
    826   442       97.0000   170       95.0000      100.0000   596605    5.26%
    846   462       97.0000    78       95.0000      100.0000   618653    5.26%
*   862   339      integral     0       96.0000      100.0000   624291    4.17%
    871   343       97.0000   211       96.0000      100.0000   640726    4.17%
    888   350       97.0000   128       96.0000      100.0000   672366    4.17%
    927   359      100.0000   298       96.0000      100.0000   696615    4.17%
    939   370       99.0000   293       96.0000      100.0000   713320    4.17%
    969   383       98.0000   182       96.0000      100.0000   737455    4.17%
    978   391      100.0000   298       96.0000      100.0000   752996    4.17%

Performing restart 1

Repeating presolve.
Tried aggregator 1 time.
MIP Presolve eliminated 0 rows and 96 columns.
MIP Presolve modified 7370 coefficients.
Reduced MIP has 613 rows, 2504 columns, and 24326 nonzeros.
Reduced MIP has 2504 binaries, 0 generals, 0 SOSs, and 0 indicators.
Presolve time = 0.02 sec. (22.20 ticks)
Tried aggregator 1 time.
Reduced MIP has 613 rows, 2504 columns, and 24326 nonzeros.
Reduced MIP has 2504 binaries, 0 generals, 0 SOSs, and 0 indicators.
Presolve time = 0.02 sec. (16.67 ticks)
Represolve time = 0.15 sec. (99.64 ticks)
    979     0      100.0000   468       96.0000       Cuts: 9   757626    4.17%
    979     0      100.0000   522       96.0000      Cuts: 46   759929    4.17%
    979     0      100.0000   250       96.0000      Cuts: 10   761603    4.17%
    979     0      100.0000   477       96.0000      Cuts: 15   764338    4.17%
    979     0      100.0000   490       96.0000      Cuts: 27   767349    4.17%
    979     0       99.9615   558       96.0000      Cuts: 34   771854    4.13%
    979     0       99.0000   571       96.0000     Cuts: 131   774065    3.12%
    979     0       99.0000   548       96.0000     Cuts: 124   775529    3.12%
    979     0       99.0000   570       96.0000      Cuts: 88   777338    3.12%
    979     2       99.0000   250       96.0000       99.0000   777338    3.12%
Elapsed time = 181.54 sec. (183475.85 ticks, tree = 0.01 MB, solutions = 7)
    989    12       99.0000   262       96.0000       99.0000   787746    3.12%
   1000    21       99.0000   169       96.0000       99.0000   810119    3.12%
   1011    32       99.0000   307       96.0000       99.0000   833979    3.12%
   1027    46       99.0000   240       96.0000       99.0000   852058    3.12%
   1043    58       98.0000   297       96.0000       99.0000   870889    3.12%
   1065    78       99.0000   157       96.0000       99.0000   889385    3.12%
   1109   106       98.0000   165       96.0000       99.0000   910147    3.12%
   1160   130       97.0000   125       96.0000       99.0000   932865    3.12%
   1215   164    infeasible             96.0000       99.0000   954391    3.12%
   1251   182       97.0000   149       96.0000       99.0000   974884    3.12%
Elapsed time = 221.54 sec. (223364.49 ticks, tree = 0.83 MB, solutions = 7)
   1287   197       97.0000   129       96.0000       99.0000  1002121    3.12%
*  1309   101      integral     0       97.0000       99.0000  1013867    2.06%
   1315   102    infeasible             97.0000       99.0000  1024843    2.06%
   1329   106       98.0000   244       97.0000       99.0000  1050614    2.06%
   1344   111       98.0000   165       97.0000       99.0000  1076223    2.06%
   1379   121        cutoff             97.0000       99.0000  1104971    2.06%
   1422   138       98.0000   140       97.0000       99.0000  1128382    2.06%
   1461   158       99.0000   206       97.0000       99.0000  1146432    2.06%
   1485   165       98.0000   154       97.0000       99.0000  1173140    2.06%
   1510   172       99.0000   174       97.0000       99.0000  1200780    2.06%
   1529   184       98.0000   196       97.0000       99.0000  1219814    2.06%
Elapsed time = 262.40 sec. (262515.03 ticks, tree = 0.95 MB, solutions = 8)
   1551   184    infeasible             97.0000       99.0000  1250703    2.06%
   1569   186    infeasible             97.0000       99.0000  1278415    2.06%
   1586   187    infeasible             97.0000       99.0000  1302454    2.06%
   1601   193       98.0000   283       97.0000       99.0000  1323902    2.06%
   1617   201       98.0000   237       97.0000       99.0000  1348435    2.06%
   1664   203       98.0000   302       97.0000       99.0000  1393020    2.06%
   1685   214       99.0000   204       97.0000       99.0000  1412404    2.06%
   1710   227       99.0000   157       97.0000       99.0000  1432692    2.06%
   1739   232       99.0000    84       97.0000       99.0000  1457122    2.06%
   1758   234       99.0000   251       97.0000       99.0000  1479960    2.06%
Elapsed time = 302.17 sec. (302493.45 ticks, tree = 1.22 MB, solutions = 8)
   1772   245       98.0000   174       97.0000       99.0000  1499592    2.06%
   1787   256       99.0000   194       97.0000       99.0000  1523583    2.06%
   1809   267       99.0000   215       97.0000       99.0000  1548134    2.06%
   1839   286       99.0000   184       97.0000       99.0000  1565820    2.06%
   1868   298       98.0000   164       97.0000       99.0000  1589734    2.06%
   1896   302       98.0000   118       97.0000       99.0000  1620706    2.06%
   1927   303    infeasible             97.0000       99.0000  1655106    2.06%
   1951   303    infeasible             97.0000       99.0000  1690282    2.06%
   1968   307       98.0000   244       97.0000       99.0000  1716735    2.06%
   1997   315    infeasible             97.0000       99.0000  1740164    2.06%
Elapsed time = 342.47 sec. (341940.92 ticks, tree = 1.61 MB, solutions = 8)
   2014   324    infeasible             97.0000       99.0000  1761450    2.06%
   2051   332       99.0000   199       97.0000       99.0000  1786835    2.06%
   2069   341       98.0000   231       97.0000       99.0000  1807155    2.06%
   2108   352       98.0000   143       97.0000       99.0000  1828849    2.06%
   2160   367       99.0000   176       97.0000       99.0000  1849146    2.06%
   2207   390       99.0000   145       97.0000       99.0000  1867298    2.06%
   2251   416       98.0000   207       97.0000       99.0000  1887743    2.06%
   2302   436       98.0000   188       97.0000       99.0000  1908770    2.06%
   2346   459       98.0000   161       97.0000       99.0000  1926370    2.06%
   2391   473    infeasible             97.0000       99.0000  1952813    2.06%
Elapsed time = 383.61 sec. (380616.84 ticks, tree = 2.64 MB, solutions = 8)
   2442   496       98.0000   169       97.0000       99.0000  1974276    2.06%
   2491   535       99.0000   169       97.0000       99.0000  1986845    2.06%
   2539   564       99.0000   152       97.0000       99.0000  2001731    2.06%
   2582   585       98.0000   212       97.0000       99.0000  2019652    2.06%
   2631   613       99.0000   168       97.0000       99.0000  2036845    2.06%
   2670   625       98.0000   140       97.0000       99.0000  2064734    2.06%
   2724   638       98.0000   158       97.0000       99.0000  2091565    2.06%
   2778   666       99.0000   138       97.0000       99.0000  2109919    2.06%
   2813   679       99.0000   267       97.0000       99.0000  2129070    2.06%
   2826   689       99.0000   167       97.0000       99.0000  2144068    2.06%
Elapsed time = 426.01 sec. (419414.63 ticks, tree = 4.09 MB, solutions = 8)
   2846   698       98.0000   126       97.0000       99.0000  2168959    2.06%
   2868   714       98.0000   137       97.0000       99.0000  2190739    2.06%
   2892   727       99.0000   193       97.0000       99.0000  2213030    2.06%
   2913   743       98.0000   211       97.0000       99.0000  2228158    2.06%
   2940   752    infeasible             97.0000       99.0000  2254696    2.06%
   2977   755    infeasible             97.0000       99.0000  2284809    2.06%
   3004   759       98.0000   147       97.0000       99.0000  2309134    2.06%
   3034   772       98.0000   185       97.0000       99.0000  2333671    2.06%
   3065   788       98.0000   118       97.0000       99.0000  2356304    2.06%
   3079   785       98.0000   191       97.0000       99.0000  2369338    2.06%
Elapsed time = 466.51 sec. (458147.35 ticks, tree = 4.74 MB, solutions = 8)
   3119   787    infeasible             97.0000       99.0000  2405990    2.06%
   3149   803       98.0000   212       97.0000       99.0000  2429650    2.06%
   3174   812    infeasible             97.0000       99.0000  2456015    2.06%
   3179   815       98.0000   168       97.0000       99.0000  2460446    2.06%
   3214   832       98.0000   126       97.0000       99.0000  2479956    2.06%
   3255   841       98.0000   172       97.0000       99.0000  2509196    2.06%
   3300   861       98.0000   150       97.0000       99.0000  2530447    2.06%
   3347   887       98.0000   154       97.0000       99.0000  2548505    2.06%
   3393   895       98.0000   192       97.0000       99.0000  2577243    2.06%
   3414   904       98.0000   122       97.0000       99.0000  2604873    2.06%
Elapsed time = 509.15 sec. (497710.93 ticks, tree = 5.53 MB, solutions = 8)
   3439   908    infeasible             97.0000       99.0000  2635843    2.06%
   3466   925       98.0000   123       97.0000       99.0000  2655072    2.06%
   3494   939       98.0000   152       97.0000       99.0000  2679068    2.06%
   3523   943    infeasible             97.0000       99.0000  2712934    2.06%
   3546   949       98.0000   168       97.0000       99.0000  2740515    2.06%
   3580   955       99.0000   220       97.0000       99.0000  2768999    2.06%
   3601   963       98.0000   190       97.0000       99.0000  2791380    2.06%
   3624   967       98.0000   167       97.0000       99.0000  2822079    2.06%
   3637   976       99.0000   200       97.0000       99.0000  2840808    2.06%
   3654   988       99.0000   163       97.0000       99.0000  2857262    2.06%
Elapsed time = 549.90 sec. (537190.62 ticks, tree = 6.11 MB, solutions = 8)
   3671   998       99.0000   168       97.0000       99.0000  2877148    2.06%
Starting limited solution polishing.
   3686  1008       98.0000   281       97.0000       99.0000  2900853    2.06%
   3706  1021       99.0000   197       97.0000       99.0000  2921057    2.06%
   3731  1028       98.0000   172       97.0000       99.0000  2946543    2.06%
   3752  1037       98.0000   152       97.0000       99.0000  2969479    2.06%
   3769  1037       98.0000   184       97.0000       99.0000  2993480    2.06%
   3787  1042       98.0000   194       97.0000       99.0000  3019418    2.06%
   3818  1048       98.0000   220       97.0000       99.0000  3047613    2.06%
   3834  1056       99.0000   199       97.0000       99.0000  3070654    2.06%
   3848  1068       99.0000   286       97.0000       99.0000  3088449    2.06%
Elapsed time = 590.40 sec. (577275.50 ticks, tree = 6.68 MB, solutions = 8)
   3863  1078       98.0000   246       97.0000       99.0000  3110728    2.06%
   3881  1086       99.0000   217       97.0000       99.0000  3134613    2.06%

Clique cuts applied:  68
Cover cuts applied:  1
Mixed integer rounding cuts applied:  5
Zero-half cuts applied:  36
Lift and project cuts applied:  1
Gomory fractional cuts applied:  1

Root node processing (before b&c):
  Real time             =   17.58 sec. (18711.46 ticks)
Sequential b&c:
  Real time             =  582.42 sec. (568266.61 ticks)
                          ------------
Total (root+branch&cut) =  600.00 sec. (586978.07 ticks)
Primal:	97
Dual:	99
Status:	Feasible
Time:	599.99
Sequence:
	15
	6
	16
	12
	4
	0
	9
	1
	24
	18
	6
	10
	12
	4
	16
	9
	4
	0
	12
	1
	8
	19
	9
	10
	4
	15
	24
	1
	12
	0
	6
	1
	13
	1
	6
	5
	4
	19
	7
	1
	6
	3
	14
	17
	7
	17
	4
	3
	22
	1
	7
	17
	4
	20
	4
	18
	8
	1
	23
	0
	4
	17
	7
	19
	4
	5
	4
	17
	13
	1
	6
	3
	6
	19
	7
	1
	6
	10
	2
	10
	4
	0
	12
	14
	0
	12
	1
	8
	11
	4
	10
	9
	0
	4
	16
	4
	15
